861 1680
2 1 4
127 1 -4
431 1 -4
453 1 4
395 2 4
429 2 -4
475 2 -4
4 3 4
107 3 -4
447 3 -4
493 3 4
412 4 -4
647 4 4
732 4 -4
54 5 4
399 5 -4
669 5 4
706 5 -4
7 6 -4
132 6 4
345 6 -4
536 6 4
16 7 -4
102 7 4
103 7 4
9 8 4
426 8 -4
469 8 4
516 8 -4
391 9 -4
684 9 4
778 9 -4
21 10 4
335 10 -4
710 10 -4
801 10 4
12 11 4
407 11 -4
536 11 -4
575 11 4
101 12 -4
185 12 -4
266 12 4
14 13 -4
116 13 4
349 13 -4
575 13 4
24 14 -4
115 14 4
117 14 4
54 15 -4
336 15 -4
564 15 4
858 15 4
17 16 4
389 16 -4
816 16 4
90 17 -4
171 17 -4
275 17 4
19 18 -4
178 18 -4
551 18 4
839 18 4
163 19 4
343 19 -4
590 19 4
337 20 -4
399 20 -4
600 20 4
803 20 4
337 21 -4
603 21 4
673 21 -4
23 22 -4
442 22 4
572 22 -4
810 22 4
169 23 4
170 23 4
806 23 -4
25 24 4
377 24 -4
764 24 4
89 25 -4
285 25 4
810 25 -4
118 26 -4
390 26 4
489 26 4
511 26 -4
28 27 4
29 27 -4
152 27 4
188 27 -4
72 28 -4
137 28 4
352 28 -4
177 29 4
347 29 -4
620 29 4
204 30 4
246 30 4
800 30 -4
856 30 -4
32 31 4
336 31 -4
568 31 4
712 31 -4
856 32 4
857 32 -4
860 32 -4
145 33 4
171 33 -4
422 33 4
462 33 -4
133 34 -4
378 34 4
465 34 4
542 34 -4
161 35 4
423 35 4
646 35 -4
729 35 -4
37 36 4
38 36 -4
138 36 4
694 36 -4
62 37 -4
124 37 4
350 37 -4
187 38 4
350 38 -4
656 38 4
40 39 4
87 39 -4
519 39 4
696 39 -4
97 40 -4
138 40 -4
741 40 4
42 41 4
337 41 -4
531 41 4
754 41 -4
801 42 4
802 42 -4
805 42 -4
131 43 4
185 43 -4
406 43 4
485 43 -4
678 44 4
722 44 -4
763 44 4
815 44 -4
46 45 4
146 45 -4
369 45 4
581 45 -4
278 46 4
444 46 -4
681 46 -4
48 47 -4
148 47 4
445 47 4
547 47 -4
252 48 4
390 48 -4
825 48 4
470 49 4
472 49 -4
654 49 4
781 49 -4
51 50 -4
125 50 4
654 50 4
658 50 -4
352 51 -4
653 51 4
692 51 4
53 52 4
474 52 -4
557 52 4
660 52 -4
108 53 -4
125 53 -4
788 53 4
204 54 -4
223 54 4
114 55 4
195 55 -4
388 55 4
505 55 -4
57 56 -4
58 56 4
81 56 4
409 56 -4
408 57 -4
506 57 4
679 57 4
637 58 -4
723 58 -4
764 58 4
60 59 4
70 59 4
466 59 -4
610 59 -4
81 60 -4
267 60 -4
488 60 4
135 61 4
411 61 -4
467 61 4
514 61 -4
63 62 4
64 62 -4
96 62 4
371 63 -4
516 63 -4
652 63 4
253 64 4
279 64 4
392 64 -4
451 65 -4
593 65 4
621 65 -4
841 65 4
190 66 4
557 66 -4
593 66 4
595 66 -4
68 67 4
101 67 4
534 67 -4
635 67 -4
236 68 4
376 68 -4
461 68 -4
338 69 4
606 69 -4
679 69 -4
816 69 4
346 70 -4
467 70 -4
491 70 4
424 71 -4
491 71 4
515 71 -4
683 71 4
73 72 4
74 72 -4
84 72 4
150 73 -4
493 73 -4
690 73 4
261 74 4
271 74 4
413 74 -4
76 75 4
430 75 -4
591 75 -4
623 75 4
97 76 4
344 76 -4
473 76 -4
180 77 4
519 77 -4
623 77 4
625 77 -4
79 78 4
90 78 4
571 78 -4
605 78 -4
225 79 4
368 79 -4
441 79 -4
339 80 4
575 80 4
576 80 -4
638 80 -4
250 81 4
339 81 -4
446 82 -4
512 82 4
548 82 -4
728 82 4
136 83 -4
305 83 4
342 83 4
469 83 -4
342 84 -4
737 84 4
784 84 -4
151 85 4
393 85 4
696 85 -4
737 85 -4
87 86 -4
166 86 4
663 86 4
665 86 -4
244 87 4
495 87 4
89 88 4
90 88 -4
91 88 4
636 88 -4
157 89 4
809 89 -4
170 90 4
258 91 -4
536 91 4
606 91 -4
340 92 4
536 92 4
537 92 -4
607 92 -4
468 93 -4
545 93 4
585 93 -4
775 93 4
175 94 4
447 94 -4
729 94 -4
775 94 4
122 95 -4
311 95 4
343 95 4
448 95 -4
343 96 -4
693 96 4
838 96 -4
137 97 4
693 97 -4
154 98 4
474 98 -4
699 98 4
701 98 -4
100 99 4
101 99 -4
102 99 4
676 99 -4
144 100 4
759 100 -4
812 100 -4
604 101 4
573 102 -4
576 102 -4
341 103 4
506 103 -4
577 103 -4
332 104 4
390 104 4
724 104 -4
726 104 -4
492 105 -4
583 105 4
613 105 -4
829 105 4
162 106 4
549 106 -4
728 106 -4
829 106 4
587 107 4
617 107 4
781 107 -4
124 108 4
657 108 -4
841 108 4
141 109 4
451 109 -4
742 109 4
744 109 -4
111 110 4
562 110 -4
708 110 4
750 110 -4
288 111 4
478 111 -4
629 111 -4
113 112 4
114 112 -4
115 112 4
720 112 -4
130 113 4
718 113 -4
761 113 -4
407 114 -4
634 114 4
276 115 -4
537 115 -4
117 116 4
487 116 -4
539 116 -4
216 117 -4
538 117 -4
119 118 4
411 118 -4
827 118 4
330 119 4
680 119 -4
682 119 -4
121 120 4
149 120 4
586 120 -4
683 120 -4
211 121 4
425 121 -4
828 121 -4
123 122 -4
615 122 4
651 122 4
175 123 -4
298 123 4
834 123 4
291 124 -4
619 124 -4
591 125 -4
656 125 4
430 126 -4
789 126 4
791 126 4
792 126 -4
167 127 4
627 127 -4
791 127 4
129 128 4
525 128 -4
671 128 4
802 128 -4
283 129 4
456 129 -4
598 129 -4
290 130 -4
329 130 4
674 130 -4
389 131 -4
675 131 4
761 131 -4
463 132 4
508 132 -4
578 132 -4
173 133 4
424 133 -4
643 133 4
355 134 4
412 134 -4
513 134 4
774 134 -4
252 135 -4
355 135 -4
647 135 4
550 136 -4
649 136 4
689 136 4
299 137 -4
589 137 -4
555 138 -4
692 138 4
452 139 -4
844 139 4
846 139 4
847 139 -4
141 140 -4
155 140 4
433 140 -4
846 140 4
262 141 -4
282 141 4
143 142 4
563 142 -4
631 142 4
857 142 -4
274 143 4
435 143 -4
561 143 -4
193 144 -4
295 144 -4
324 144 4
377 145 -4
717 145 4
812 145 -4
159 146 4
446 146 -4
611 146 4
357 147 4
391 147 -4
546 147 4
727 147 -4
241 148 -4
269 148 4
357 148 -4
357 149 -4
615 149 -4
686 149 4
176 150 4
588 150 -4
686 150 4
551 151 4
552 151 -4
554 151 -4
518 152 -4
696 152 -4
736 152 4
313 153 -4
429 153 4
696 153 4
697 153 -4
254 154 -4
351 154 -4
848 154 4
351 155 -4
382 155 4
397 155 -4
264 156 4
416 156 -4
523 156 -4
600 156 4
183 157 -4
301 157 -4
318 157 4
249 158 -4
277 158 4
349 158 4
721 158 -4
196 159 4
466 159 -4
727 159 -4
196 160 -4
359 160 4
379 160 -4
584 160 4
231 161 -4
309 161 4
359 161 -4
359 162 -4
587 162 -4
732 162 4
312 163 -4
781 163 4
782 163 -4
322 164 -4
660 164 4
661 164 -4
844 164 4
353 165 4
432 165 -4
495 165 4
845 165 -4
353 166 -4
495 166 -4
793 166 4
353 167 -4
373 167 4
415 167 -4
255 168 4
398 168 -4
498 168 -4
564 168 4
757 169 -4
571 170 -4
572 170 -4
214 171 4
808 171 4
345 172 -4
541 172 4
610 172 -4
821 172 4
186 173 4
490 173 -4
774 173 -4
186 174 -4
364 174 4
370 174 -4
612 174 4
364 175 -4
778 175 4
177 176 4
380 176 -4
835 176 -4
321 177 -4
735 177 -4
621 178 -4
786 178 4
837 178 4
356 179 4
414 179 -4
520 179 4
790 179 -4
356 180 -4
520 180 -4
745 180 4
245 181 4
383 181 -4
478 181 -4
526 181 4
209 182 4
362 182 -4
481 182 4
501 182 -4
184 183 4
363 183 -4
604 183 4
716 184 -4
225 185 4
227 185 4
325 186 4
646 186 -4
326 187 -4
689 187 4
691 187 -4
220 188 4
591 188 -4
739 188 4
358 189 4
396 189 -4
558 189 4
743 189 -4
314 190 4
358 190 -4
558 190 -4
199 191 -4
456 191 -4
499 191 4
855 191 4
205 192 4
367 192 -4
458 192 4
530 192 -4
194 193 4
368 193 -4
634 193 4
674 194 -4
236 195 4
237 195 4
407 195 -4
319 196 -4
331 196 4
413 197 4
516 197 -4
586 197 4
776 197 -4
360 198 4
381 198 -4
594 198 4
700 198 -4
200 199 4
201 199 4
361 199 -4
398 200 -4
476 200 4
521 200 -4
399 201 -4
435 201 -4
479 201 4
427 202 4
493 202 -4
614 202 4
730 202 -4
365 203 4
372 203 -4
624 203 4
664 203 -4
383 204 4
416 204 -4
385 205 -4
332 206 4
609 206 4
723 206 -4
820 206 -4
448 207 4
469 207 -4
648 207 4
685 207 -4
287 208 -4
292 208 4
623 208 4
842 208 -4
403 209 -4
330 210 4
641 210 4
679 210 -4
767 210 -4
491 211 4
492 211 -4
514 211 -4
287 212 4
475 212 -4
593 212 4
786 212 -4
214 213 4
216 213 4
408 213 -4
486 213 -4
760 214 -4
763 214 -4
216 215 4
537 215 -4
638 215 4
723 215 -4
762 216 -4
259 217 -4
319 217 4
467 217 4
611 217 -4
467 218 4
468 218 -4
547 218 -4
829 218 4
325 219 -4
730 219 4
829 219 4
831 219 -4
619 220 4
658 220 -4
691 220 -4
281 221 4
452 221 -4
557 221 4
739 221 -4
223 222 -4
224 222 4
384 222 -4
400 222 4
264 223 4
457 223 -4
401 224 -4
439 224 4
459 224 -4
406 225 -4
605 225 -4
227 226 4
229 226 4
506 226 -4
813 226 -4
719 227 -4
720 227 -4
229 228 4
576 228 -4
607 228 4
767 228 -4
285 229 -4
463 229 -4
251 230 -4
308 230 4
445 230 4
582 230 -4
445 231 4
446 231 -4
775 231 4
331 232 -4
775 232 4
776 232 4
777 232 -4
430 233 -4
519 233 4
556 233 4
697 233 -4
245 234 4
401 234 4
417 234 -4
855 234 -4
274 235 4
401 235 -4
436 235 4
480 235 -4
388 236 -4
635 236 -4
290 237 -4
535 237 4
676 237 -4
239 238 4
577 238 4
606 238 -4
820 238 -4
275 239 -4
443 239 -4
535 239 4
444 240 4
543 240 -4
579 240 4
771 240 -4
423 241 4
424 241 -4
728 241 4
728 242 4
729 242 -4
731 242 -4
830 242 4
306 243 -4
470 243 4
832 243 4
833 243 -4
451 244 -4
592 244 4
661 244 -4
800 245 -4
802 245 -4
283 246 4
417 246 -4
500 246 -4
295 247 -4
574 247 4
635 247 4
636 247 -4
249 248 4
538 248 4
637 248 -4
768 248 -4
266 249 -4
574 249 4
251 250 -4
540 250 4
824 250 -4
724 251 4
825 251 4
411 252 -4
683 252 4
312 253 -4
778 253 4
779 253 -4
395 254 4
474 254 4
475 254 -4
400 255 4
749 255 -4
750 255 -4
288 256 4
437 256 -4
479 256 4
529 256 -4
258 257 4
407 257 4
408 257 -4
606 257 -4
301 258 -4
605 258 4
260 259 4
410 259 -4
680 259 4
411 260 4
492 260 -4
770 260 -4
321 261 -4
732 261 4
733 261 -4
451 262 4
452 262 -4
846 262 4
746 263 4
846 263 4
847 263 -4
850 263 -4
707 264 -4
708 264 -4
293 265 4
457 265 -4
499 265 4
566 265 -4
573 266 4
637 266 -4
268 267 4
641 267 4
645 267 -4
424 268 4
468 268 -4
725 268 -4
310 269 -4
426 269 4
613 269 -4
326 270 -4
428 270 4
686 270 4
687 270 -4
272 271 4
428 271 -4
552 271 -4
590 272 -4
690 272 -4
736 272 4
791 273 4
792 273 -4
794 273 4
795 273 -4
670 274 -4
671 274 -4
276 275 4
677 275 -4
301 276 4
760 276 -4
278 277 4
443 277 -4
488 277 -4
465 278 -4
507 278 -4
280 279 4
449 279 -4
589 279 -4
620 280 -4
652 280 -4
692 280 4
299 281 4
695 281 -4
787 281 -4
744 282 -4
747 282 -4
849 282 4
630 283 -4
631 283 -4
318 284 4
462 284 -4
286 285 4
721 285 -4
295 286 4
719 286 -4
814 286 -4
291 287 4
659 287 -4
599 288 -4
601 288 -4
324 289 4
485 289 -4
486 290 4
675 290 4
620 291 4
622 291 -4
495 292 4
843 292 -4
845 292 -4
562 293 4
563 293 -4
565 293 -4
329 294 4
505 294 -4
634 295 4
513 296 4
825 296 4
826 296 -4
828 296 -4
298 297 4
514 297 4
515 297 -4
731 297 -4
684 298 -4
687 298 -4
590 299 4
592 299 -4
520 300 4
787 300 4
788 300 -4
790 300 -4
604 301 4
546 302 4
772 302 4
773 302 -4
774 302 -4
304 303 4
547 303 4
548 303 -4
777 303 -4
550 304 4
647 304 -4
650 304 -4
306 305 4
552 305 -4
735 305 -4
834 306 4
835 306 -4
558 307 4
740 307 4
741 307 -4
743 307 -4
584 308 4
726 308 -4
727 308 -4
310 309 4
585 309 -4
831 309 -4
588 310 4
616 310 -4
312 311 4
589 311 -4
782 311 -4
780 312 4
594 313 4
698 313 4
700 313 -4
315 314 4
595 314 -4
703 314 -4
597 315 4
667 315 -4
793 315 -4
317 316 4
603 316 -4
334 317 -4
859 317 4
860 317 -4
806 318 -4
809 318 -4
612 319 4
682 319 -4
321 320 4
617 320 4
619 320 -4
836 320 -4
734 321 4
624 322 4
662 322 4
664 322 -4
633 323 -4
861 323 4
756 324 -4
759 324 -4
647 325 4
828 325 -4
653 326 4
688 326 4
328 327 4
673 327 -4
752 328 4
753 328 -4
755 328 -4
715 329 -4
718 329 -4
822 330 -4
824 330 -4
684 331 4
774 331 -4
769 332 -4
771 332 -4
749 333 4
851 333 4
852 333 -4
854 333 -4
861 334 4
337 335 -4
479 335 4
527 335 -4
710 336 -4
856 336 4
409 338 -4
444 338 -4
678 338 -4
464 339 -4
722 339 -4
444 340 -4
487 340 -4
766 340 -4
464 341 -4
508 341 -4
819 341 -4
428 342 -4
551 342 -4
449 343 -4
590 344 4
660 344 -4
784 344 -4
443 345 4
539 345 -4
410 346 4
490 346 -4
642 346 -4
471 347 -4
617 347 4
654 347 -4
620 348 4
621 348 -4
838 348 -4
841 348 -4
578 349 -4
639 349 -4
494 350 -4
651 350 4
395 351 4
454 351 -4
517 352 -4
689 352 4
476 353 -4
374 354 -4
713 354 -4
447 355 -4
614 355 -4
433 356 -4
496 356 -4
648 357 -4
454 358 -4
521 358 -4
685 359 -4
476 360 -4
559 360 -4
595 360 -4
416 361 -4
454 361 4
559 361 -4
419 362 -4
807 363 -4
547 364 -4
730 364 -4
496 365 -4
596 365 -4
625 365 -4
383 366 -4
433 366 4
435 366 -4
596 366 -4
439 367 -4
445 369 -4
512 369 4
824 369 4
514 370 -4
549 370 -4
776 370 -4
616 371 -4
732 371 4
781 371 -4
521 372 -4
626 372 -4
665 372 -4
398 373 -4
456 373 -4
626 373 -4
375 374 -4
438 374 4
567 374 -4
459 375 -4
674 376 -4
535 377 4
605 377 -4
423 378 -4
545 378 4
771 378 4
515 379 -4
586 379 -4
830 379 -4
470 380 -4
650 380 -4
778 380 4
559 381 -4
666 381 -4
701 381 -4
416 382 -4
478 382 -4
666 382 -4
796 383 -4
417 384 -4
419 384 4
482 384 -4
386 385 -4
418 385 4
859 385 -4
482 386 -4
388 387 -4
716 387 -4
484 388 -4
574 389 4
635 389 -4
583 390 4
548 391 -4
614 391 -4
687 392 -4
689 392 -4
832 392 4
394 393 -4
450 393 -4
554 393 -4
429 394 -4
474 394 -4
622 394 4
453 395 -4
596 396 -4
702 396 -4
744 396 -4
435 397 -4
498 397 -4
702 397 -4
524 398 -4
400 399 4
437 400 -4
402 401 -4
403 402 4
437 402 -4
502 402 -4
404 403 -4
804 403 -4
502 404 -4
406 405 -4
757 405 -4
504 406 -4
818 408 -4
410 409 4
510 409 -4
509 410 4
585 412 -4
648 412 -4
651 413 -4
733 413 -4
626 414 -4
746 414 -4
792 414 -4
456 415 -4
523 415 -4
746 415 -4
418 417 -4
457 418 -4
531 418 -4
420 419 -4
752 419 -4
531 420 -4
422 421 -4
807 421 -4
533 422 -4
808 422 -4
772 423 4
426 425 -4
613 425 -4
685 425 -4
686 426 -4
428 427 -4
617 427 -4
779 427 -4
431 429 -4
431 430 -4
791 431 -4
666 432 -4
794 432 -4
847 432 -4
434 433 -4
478 434 -4
561 434 -4
794 434 -4
524 436 -4
801 436 -4
854 436 -4
438 437 -4
480 438 -4
568 438 -4
440 439 -4
711 439 -4
568 440 -4
442 441 -4
570 442 -4
758 442 -4
765 443 -4
644 446 -4
649 447 4
449 448 -4
833 448 -4
688 449 4
452 450 -4
555 450 -4
663 450 4
702 453 -4
849 453 -4
455 454 -4
498 455 -4
598 455 -4
849 455 -4
458 457 -4
500 458 -4
603 458 -4
460 459 -4
753 459 -4
603 460 -4
462 461 -4
717 462 -4
507 463 -4
817 463 -4
465 464 -4
724 464 4
725 465 -4
468 466 -4
582 466 4
471 469 -4
618 470 4
618 471 -4
734 471 4
553 472 -4
618 472 -4
656 472 -4
475 473 -4
518 473 -4
699 473 4
477 476 -4
523 477 -4
629 477 -4
850 477 4
749 479 -4
481 480 -4
528 480 -4
529 481 -4
633 481 -4
483 482 -4
805 482 -4
633 483 -4
485 484 -4
675 485 -4
572 486 -4
762 486 -4
489 487 -4
680 487 4
489 488 -4
538 488 -4
770 489 -4
492 490 -4
544 490 4
645 491 4
494 493 -4
652 494 -4
780 494 4
497 496 -4
796 496 -4
561 497 -4
668 497 -4
795 497 4
562 498 -4
707 499 -4
856 499 4
501 500 -4
565 500 -4
566 501 -4
673 501 -4
503 502 -4
860 502 -4
673 503 -4
505 504 -4
634 505 -4
814 506 -4
509 507 -4
818 507 4
511 508 -4
641 508 4
511 509 -4
577 509 -4
543 510 -4
639 510 -4
823 510 4
823 511 -4
513 512 4
682 512 4
515 513 -4
517 516 -4
690 517 -4
834 517 4
658 518 -4
787 518 4
520 519 4
522 521 -4
598 522 -4
705 522 -4
747 522 4
525 523 -4
527 524 -4
799 524 -4
527 525 -4
705 525 -4
528 526 4
670 526 -4
801 526 4
528 527 -4
602 528 -4
530 529 -4
601 529 -4
602 530 -4
712 530 -4
532 531 -4
712 532 -4
534 533 -4
604 534 -4
715 534 -4
537 535 -4
540 538 -4
542 539 -4
609 539 4
542 540 -4
607 540 -4
544 541 -4
770 541 4
822 541 4
544 542 -4
644 543 -4
772 543 4
772 544 -4
546 545 4
726 545 4
548 546 -4
550 549 -4
832 549 4
834 550 -4
835 551 4
783 552 4
554 553 -4
655 553 4
694 553 -4
556 554 -4
694 555 -4
740 555 4
738 556 -4
740 556 -4
558 557 4
560 559 -4
629 560 -4
703 560 4
748 560 -4
563 561 -4
668 562 -4
748 563 -4
565 564 4
630 564 -4
632 565 -4
567 566 -4
631 566 -4
632 567 -4
754 567 -4
569 568 -4
754 569 -4
571 570 -4
756 571 -4
573 572 -4
811 573 -4
576 574 -4
636 575 4
579 577 -4
580 578 4
581 578 -4
581 579 -4
638 579 -4
582 580 -4
725 580 4
769 580 4
582 581 -4
584 583 4
773 583 4
585 584 -4
588 586 -4
731 587 4
780 587 4
780 588 -4
837 589 4
698 591 4
698 592 -4
785 592 -4
594 593 4
595 594 -4
597 596 -4
668 597 -4
798 597 -4
599 598 -4
600 599 -4
798 599 -4
601 600 4
672 601 -4
671 602 -4
859 602 -4
608 607 -4
610 608 -4
679 608 -4
724 608 4
611 609 -4
681 609 4
611 610 -4
613 612 -4
827 612 4
616 614 -4
734 615 4
777 615 4
734 616 -4
619 618 -4
662 621 4
662 622 -4
840 622 -4
624 623 4
625 624 -4
745 625 -4
628 626 -4
628 627 -4
745 627 -4
796 627 -4
705 628 -4
853 628 -4
630 629 -4
853 630 -4
709 631 -4
708 632 -4
804 632 -4
710 633 4
637 636 -4
640 638 -4
642 639 -4
768 639 4
642 640 -4
680 640 4
723 640 -4
643 641 -4
643 642 -4
645 643 -4
646 644 -4
681 644 -4
646 645 -4
650 648 -4
688 649 4
831 649 4
688 650 -4
653 651 4
655 652 -4
655 653 -4
657 654 4
657 655 -4
659 656 4
659 657 -4
661 658 4
661 659 -4
839 660 -4
789 662 4
664 663 4
787 663 4
665 664 -4
793 665 -4
667 666 -4
669 667 -4
748 667 -4
670 668 -4
670 669 -4
797 669 -4
751 671 -4
750 672 -4
752 672 -4
859 672 -4
675 674 4
677 676 -4
816 676 4
678 677 -4
818 677 -4
767 678 -4
682 681 -4
684 683 4
687 685 -4
691 690 -4
693 691 -4
695 692 4
695 693 -4
697 694 4
697 695 -4
742 698 4
700 699 4
740 699 4
701 700 -4
848 701 -4
704 702 -4
704 703 -4
848 703 -4
706 704 -4
798 704 -4
707 705 -4
707 706 -4
852 706 -4
803 708 -4
711 709 -4
802 709 -4
804 709 -4
713 710 -4
713 711 -4
803 711 -4
714 712 -4
714 713 -4
717 716 4
718 716 -4
719 717 4
719 718 -4
721 720 -4
764 720 4
722 721 -4
820 722 -4
726 725 -4
729 727 -4
733 730 -4
733 731 -4
737 735 -4
837 735 -4
738 736 4
836 736 -4
738 737 -4
739 738 -4
741 739 -4
844 741 -4
743 742 4
843 742 -4
744 743 -4
747 745 -4
851 746 -4
851 747 -4
749 748 -4
858 750 -4
752 751 -4
753 751 -4
857 751 -4
858 753 -4
755 754 -4
758 757 4
759 757 -4
760 758 4
810 758 4
760 759 -4
763 761 -4
814 761 4
765 762 -4
812 762 4
765 763 -4
766 764 -4
766 765 -4
768 766 -4
769 767 -4
769 768 -4
773 770 -4
773 771 -4
779 776 -4
779 777 -4
783 782 -4
784 782 -4
785 783 4
839 783 4
785 784 -4
786 785 -4
788 786 -4
789 788 -4
790 789 4
792 790 -4
795 793 -4
797 794 -4
797 795 -4
799 796 -4
799 797 -4
800 798 -4
800 799 -4
805 803 -4
861 804 4
861 805 -4
808 807 4
809 807 -4
811 808 4
811 809 -4
813 810 4
813 811 -4
815 812 -4
815 813 -4
817 814 -4
817 815 -4
819 816 -4
819 817 -4
821 818 -4
821 819 -4
822 820 -4
822 821 -4
825 823 -4
826 823 -4
826 824 -4
827 826 4
828 827 -4
832 830 -4
833 830 -4
833 831 -4
836 835 -4
838 836 -4
840 837 4
840 838 -4
842 839 4
842 840 -4
843 841 4
843 842 -4
845 844 4
847 845 -4
850 848 -4
852 849 -4
852 850 -4
853 851 -4
854 853 -4
855 854 -4
857 855 -4
860 858 -4
527
335 2
336 2
337 4
338 2
339 2
340 2
341 2
342 2
343 2
344 2
345 2
346 2
347 2
348 2
349 2
350 2
351 2
352 2
353 2
354 2
355 2
356 2
357 2
358 2
359 2
360 2
361 2
362 2
363 2
364 2
365 2
366 2
367 2
368 2
369 -2
370 4
371 2
372 4
373 2
374 2
375 2
376 2
377 2
378 -2
379 4
380 2
381 4
382 2
383 2
384 2
385 2
386 2
387 2
388 2
389 2
390 -2
391 4
392 2
393 2
394 2
395 -2
396 4
397 4
398 4
399 2
400 -2
401 2
402 2
403 2
404 2
405 2
406 2
407 2
408 4
409 2
410 -2
411 2
412 4
413 2
414 4
415 4
416 4
417 4
418 2
419 2
420 2
421 2
422 2
423 -2
424 2
425 4
426 2
427 2
428 2
429 2
430 4
431 4
432 4
433 2
434 4
435 4
436 2
437 4
438 2
439 2
440 2
441 2
442 2
443 2
444 2
445 -2
446 4
447 2
448 2
449 2
450 2
451 2
452 4
453 2
454 2
455 4
456 4
457 4
458 2
459 4
460 2
461 2
462 4
463 2
464 2
465 2
466 2
467 -2
468 4
469 2
470 -2
471 2
472 4
473 2
474 2
475 4
476 2
477 2
478 4
479 -2
480 4
481 2
482 4
483 2
484 2
485 4
486 2
487 2
488 2
489 2
490 2
491 -4
492 4
493 2
494 2
495 -2
496 4
497 2
498 4
499 -2
500 4
501 4
502 4
503 2
504 2
505 4
506 2
507 2
508 2
509 2
510 2
511 4
512 -4
513 -2
514 2
515 4
516 4
517 2
518 2
519 -2
520 -2
521 4
522 2
523 4
524 4
525 4
526 -2
527 4
528 2
529 4
530 4
531 2
532 2
533 2
534 4
535 -2
536 -2
537 4
538 2
539 2
540 2
541 -2
542 4
543 2
544 2
545 -4
546 -2
547 2
548 4
549 2
550 2
551 -2
552 2
553 2
554 4
555 2
556 2
557 -2
558 -2
559 4
560 2
561 4
562 2
563 4
564 -2
565 2
566 4
567 4
568 2
569 2
570 2
571 4
572 4
573 2
574 -2
575 -4
576 4
577 2
578 2
579 2
580 -2
581 4
582 2
583 -4
584 -2
585 4
586 2
587 -2
588 2
589 2
590 -2
591 2
592 2
593 -4
594 -2
595 4
596 4
597 2
598 4
599 4
600 -2
601 2
602 4
603 2
604 -2
605 2
606 4
607 2
608 2
609 -2
610 4
611 2
612 -2
613 4
614 2
615 -2
616 4
617 -2
618 2
619 2
620 -2
621 2
622 2
623 -4
624 -2
625 4
626 4
627 4
628 4
629 4
630 4
631 2
632 4
633 2
634 -2
635 2
636 2
637 4
638 2
639 2
640 2
641 -2
642 4
643 2
644 4
645 2
646 4
647 -2
648 2
649 -4
650 4
651 -2
652 2
653 -2
654 -2
655 2
656 -2
657 2
658 2
659 2
660 2
661 2
662 -2
663 -4
664 2
665 4
666 4
667 4
668 4
669 2
670 4
671 2
672 4
673 4
674 2
675 -2
676 2
677 4
678 2
679 2
680 -2
681 2
682 2
683 -2
684 -2
685 4
686 -2
687 4
688 -2
689 -2
690 2
691 4
692 -4
693 2
694 2
695 2
696 2
697 2
698 -2
699 -4
700 2
701 4
702 4
703 2
704 4
705 4
706 4
707 4
708 2
709 4
710 2
711 4
712 4
713 4
714 2
715 2
716 2
717 -2
718 4
719 2
720 2
721 4
722 4
723 4
724 -2
725 2
726 2
727 4
728 -2
729 4
730 2
731 2
732 -2
733 4
734 -2
735 4
736 -2
737 2
738 2
739 2
740 -2
741 2
742 -2
743 2
744 4
745 2
746 2
747 2
748 4
749 2
750 4
751 4
752 2
753 4
754 4
755 2
756 2
757 2
758 -2
759 4
760 2
761 2
762 2
763 2
764 -2
765 4
766 4
767 4
768 2
769 2
770 2
771 2
772 -2
773 2
774 4
775 -4
776 2
777 2
778 -2
779 4
780 -2
781 2
782 4
783 -2
784 4
785 2
786 2
787 -2
788 2
789 -2
790 2
791 -2
792 4
793 2
794 2
795 2
796 4
797 4
798 4
799 4
800 4
801 -2
802 4
803 2
804 2
805 4
806 2
807 2
808 -2
809 4
810 -2
811 2
812 2
813 2
814 2
815 4
816 -2
817 4
818 2
819 4
820 4
821 2
822 2
823 2
824 2
825 -2
826 2
827 -2
828 4
829 -4
830 2
831 2
832 -2
833 4
834 -2
835 2
836 4
837 -2
838 4
839 -2
840 2
841 -2
842 2
843 2
844 -2
845 2
846 -4
847 4
848 2
849 2
850 2
851 2
852 4
853 4
854 4
855 2
856 -2
857 4
858 2
859 2
860 4
861 -2
